s td 247 9 275
b 1 2 230 273
b 2 11 39 192
b 3 23 40 61
b 4 42 246 259
b 5 61 159
b 6 65 148 183
b 7 92 211 235
b 8 95 141 252
b 9 16 172 258
b 10 87 183
b 11 87 180
b 12 86 199 233
b 13 86 218 233
b 14 218 263
b 15 211 238
b 16 3 5 241
b 17 95 262
b 18 127 262
b 19 93 127
b 20 3 5 132
b 21 5 55 132
b 22 20 167 236
b 23 39 47 192
b 24 47 68 192
b 25 13 63 98 152
b 26 13 80 98
b 27 80 96 98
b 28 80 96 121
b 29 16 93 200
b 30 96 121 220
b 31 128 191 253
b 32 124 135 222
b 33 14 124 145
b 34 14 113 118 124
b 35 118 124 187
b 36 124 187 222
b 37 110 147 253
b 38 159 213 236
b 39 102 180 246
b 40 187 213 222
b 41 191 202 253
b 42 163 195 210
b 43 213 222 236
b 44 120 121 220
b 45 129 222 236
b 46 123 231 272
b 47 72 200 238
b 48 46 115 239
b 49 131 242 274
b 50 102 246 259
b 51 110 202 253
b 52 16 177 258
b 53 102 259 269
b 54 10 189 263
b 55 123 158 272
b 56 25 33 273
b 57 1 70 137 163
b 58 7 38 84 119
b 59 15 25 33 163
b 60 16 57 177 200
b 61 4 53 102 107 109 115 142 244
b 62 53 83 102 107 109 130 142 173 244
b 63 83 105 107 109 130 134 173 176 244
b 64 41 83 105 107 130 134 173 176 261
b 65 28 41 73 83 105 130 134 173 261
b 66 28 41 50 69 73 83 130 173 261
b 67 27 28 41 50 69 73 130 173 261
b 68 27 28 50 69 73 130 173 174 261
b 69 27 28 50 73 130 173 174 184 261
b 70 28 50 73 130 173 174 184 209
b 71 8 28 50 73 130 173 184 209
b 72 8 28 73 122 130 173 184 209
b 73 8 18 28 73 122 173 184 209
b 74 8 18 28 37 73 122 184 209
b 75 18 28 37 73 122 157 184 209
b 76 18 28 37 67 73 157 184 209
b 77 18 28 37 67 73 74 157 184
b 78 18 28 67 73 74 157 184 249
b 79 18 28 67 73 74 157 228 249
b 80 18 24 28 73 74 157 228 249
b 81 18 24 28 74 111 157 228 249
b 82 18 24 28 74 111 157 214 228
b 83 18 28 49 74 111 157 214 228
b 84 18 44 49 74 111 157 214 228
b 85 18 44 49 74 157 206 214 228
b 86 18 44 49 74 116 157 206 228
b 87 18 44 49 74 116 157 196 206
b 88 18 49 74 78 116 157 196 206
b 89 18 49 74 78 157 171 196 206
b 90 6 74 78 171
b 91 18 49 78 171 196 201 206
b 92 18 48 78 171 196 201 206
b 93 18 48 78 112 171 196 201
b 94 18 48 78 112 171 196 204
b 95 18 48 112 171 196 204 251
b 96 18 48 112 171 181 204 251
b 97 18 112 154 171 181 204 251
b 98 18 68 112 154 171 181 204
b 99 18 68 154 171 204 216
b 100 18 43 68 154 204 216
b 101 18 43 58 68 154 216
b 102 18 43 58 169 216
b 103 18 36 43 58 169
b 104 18 36 58 121 169
b 105 36 58 120 121
b 106 36 121 162 169
b 107 36 43 58 169 186
b 108 43 58 150 186
b 109 43 58 68 114 154
b 110 58 68 114 257
b 111 43 154 170 204 216
b 112 170 204 216 240
b 113 68 112 154 181 248
b 114 68 154 181 221 248
b 115 112 181 248 256
b 116 99 154 181 204 251
b 117 48 112 126 181 251
b 118 48 196 204 227 251
b 119 48 112 201 247
b 120 48 166 196 201 206
b 121 49 144 201 206
b 122 78 116 196 226
b 123 44 94 116 196 206
b 124 74 116 178 228
b 125 44 49 89 206 214
b 126 28 49 81 214
b 127 24 28 136 214
b 128 24 111 217 228 249
b 129 24 73 249 254
b 130 67 90 228 249
b 131 19 37 74 157
b 132 37 82 122 157
b 133 8 37 122 139 209
b 134 18 56 122 173
b 135 8 122 130 173 267
b 136 17 27 184 261
b 137 27 62 174 184
b 138 27 50 69 174 185
b 139 27 41 69 198 261
b 140 41 50 69 83 97 130
b 141 9 50 69 97
b 142 41 69 71 97
b 143 22 28 73 105 134
b 144 22 28 51 73 134
b 145 22 51 75 134
b 146 22 28 51 73 143
b 147 22 51 143 175
b 148 28 51 143 270
b 149 73 105 106 261
b 150 41 83 105 107 176 197 261
b 151 29 41 83 107 197
b 152 41 105 193 197 261
b 153 105 109 134 149 176 244
b 154 105 149 176 212
b 155 53 64 83 102 107 130 142 173
b 156 53 64 102 130 142 173 207
b 157 53 102 130 142 151 173 207
b 158 102 130 151 173 207 225
b 159 102 130 173 189 207 225
b 160 10 102 189 225
b 161 35 130 189 207 225
b 162 35 130 179 189
b 163 53 100 102 151
b 164 53 142 151 182 207
b 165 4 34 53 107 109 115 142 244
b 166 4 34 107 109 115 142 205 244
b 167 4 34 109 115 146 194 205 244
b 168 34 101 109 115 146 194 205 244
b 169 101 109 115 146 158 194 219
b 170 12 91 115 146 158 165 194 219
b 171 12 76 91 115 156 158 165 219
b 172 59 76 91 115 156 158
b 173 59 76 91 155 156
b 174 21 91 155 156
b 175 76 125 155 156
b 176 46 59 115 158
b 177 46 59 158 163
b 178 46 85 158 163
b 179 33 46 85 163
b 180 25 33 85 163
b 181 85 158 163 210
b 182 46 59 163 164
b 183 12 76 91 156 158 165 168 219
b 184 12 76 156 158 165 168 215 219
b 185 26 76 156 168 215
b 186 12 76 158 165 168 215 219 274
b 187 12 30 165 168 215 274
b 188 12 30 79 168
b 189 30 165 188 274
b 190 30 168 215 260 274
b 191 76 158 165 215 219 274 275
b 192 76 84 165 215 219 274 275
b 193 76 84 119 215 274 275
b 194 38 84 119 275
b 195 84 119 131 215 274
b 196 76 119 215 224
b 197 54 84 165 219 274 275
b 198 54 77 165 219 275
b 199 54 77 255 275
b 200 12 91 156 168 265
b 201 12 91 115 146 165 194 219 237
b 202 12 91 115 194 237 264
b 203 52 115 194 237 264
b 204 52 108 115 194
b 205 52 160 194 237
b 206 91 104 115 264
b 207 101 109 146 158 219 271
b 208 101 117 146 219 271
b 209 101 109 133 205 244
b 210 34 101 146 205 234
b 211 4 34 146 194 203
b 212 4 60 194 203
b 213 66 107 142 205 244
b 214 34 142 205 243
b 215 4 102 115 269
b 216 31 88 190 208
b 217 88 190 208 232
b 218 190 208 232 250
b 219 158 232 250
b 220 158 250 271
b 221 32 116 178 228
b 222 45 58 114 257
b 223 47 68 221 248
b 224 57 177 200 202
b 225 129 177 200 202
b 226 70 137 161 163
b 227 137 153 161 163
b 228 153 161 163 223
b 229 138 161 163 223
b 230 72 140 200 268
b 231 140 200 229 268
b 232 103 123 167 202
b 233 123 158 167 202
b 234 158 167 202 236
b 235 129 200 202 236
b 236 158 200 202 236
b 237 110 158 200 202
b 238 110 132 158 200
b 239 110 132 158 210
b 240 85 132 158 210
b 241 55 110 132 200
b 242 59 138 163 223
b 243 59 163 164 223
b 244 132 140 200 229
b 245 55 132 200 229
b 246 22 134 245 266
b 247 22 75 134 266
1 56
2 23
3 5
4 50
5 38
6 10
7 15
8 17
9 52
10 11
11 39
12 13
13 14
14 54
15 47
16 20
17 18
18 19
19 29
20 21
21 241
22 234
23 24
24 223
25 26
26 27
27 28
28 30
29 60
30 44
31 41
32 36
33 34
34 35
35 36
36 40
37 51
38 43
39 50
40 43
41 51
42 181
43 45
44 105
45 235
46 55
47 230
48 176
49 195
50 53
51 237
52 60
53 215
54 160
55 233
56 180
57 226
58 194
59 180
60 224
61 62
61 165
61 215
62 63
62 155
63 64
63 153
64 65
64 150
65 66
65 143
65 149
66 67
66 140
67 68
67 139
68 69
68 138
69 70
69 136
69 137
70 71
71 72
72 73
72 135
73 74
73 134
74 75
74 133
75 76
75 132
76 77
77 78
77 131
78 79
79 80
79 130
80 81
80 129
81 82
81 128
82 83
82 127
83 84
83 126
84 85
85 86
85 125
86 87
86 124
87 88
87 123
88 89
88 122
89 90
89 91
91 92
91 121
92 93
92 120
93 94
93 119
94 95
95 96
95 118
96 97
96 117
97 98
97 116
98 99
98 113
99 100
100 101
100 111
101 102
101 109
102 103
103 104
103 107
104 105
104 106
107 108
109 110
110 222
111 112
113 114
113 115
114 223
124 221
140 141
140 142
143 144
144 145
144 146
145 247
146 147
146 148
150 151
150 152
153 154
155 156
156 157
157 158
157 163
157 164
158 159
159 160
159 161
161 162
165 166
166 167
166 213
166 214
167 168
167 211
168 169
168 209
168 210
169 170
169 207
170 171
170 201
171 172
171 183
172 173
172 176
173 174
173 175
176 177
177 178
177 182
178 179
178 181
179 180
181 240
182 243
183 184
183 200
184 185
184 186
186 187
186 191
187 188
187 189
187 190
191 192
192 193
192 197
193 194
193 195
193 196
197 198
198 199
201 202
202 203
202 206
203 204
203 205
207 220
207 208
211 212
216 217
217 218
218 219
219 220
224 225
225 235
226 227
227 228
228 229
229 242
230 231
231 244
232 233
233 234
234 236
235 236
236 237
237 238
238 241
238 239
239 240
241 245
242 243
244 245
246 247
